c nombre: 15
c densidad: 0.1
p edges 50 108
e 1 6
e 1 7
e 1 20
e 1 23
e 1 25
e 1 39
e 2 18
e 2 29
e 2 46
e 2 49
e 3 45
e 4 21
e 4 34
e 5 14
e 5 22
e 5 39
e 5 43
e 5 50
e 6 9
e 6 10
e 6 34
e 6 38
e 6 42
e 6 48
e 7 11
e 7 29
e 7 36
e 7 42
e 8 13
e 8 20
e 9 11
e 9 23
e 9 32
e 9 47
e 10 15
e 10 19
e 10 20
e 10 21
e 10 23
e 10 32
e 10 47
e 10 49
e 10 50
e 11 15
e 11 16
e 11 17
e 11 22
e 11 28
e 12 16
e 12 25
e 12 26
e 12 37
e 12 44
e 13 14
e 13 21
e 13 24
e 13 45
e 14 22
e 14 33
e 14 35
e 14 39
e 15 17
e 15 19
e 15 30
e 15 40
e 15 42
e 16 26
e 16 33
e 17 22
e 18 35
e 18 39
e 19 34
e 19 41
e 19 44
e 20 30
e 20 40
e 22 41
e 24 37
e 24 38
e 25 28
e 25 47
e 26 42
e 26 49
e 27 41
e 28 32
e 28 35
e 29 34
e 29 39
e 29 46
e 31 41
e 31 45
e 32 38
e 33 40
e 33 47
e 35 49
e 36 41
e 37 38
e 37 43
e 38 40
e 39 41
e 39 45
e 39 47
e 40 47
e 42 47
e 42 50
e 44 45
e 44 48
e 45 48
